(set-info :smt-lib-version 2.6)
(set-logic QF_LIA)
(set-info :category "industrial")
(set-info :status sat)
(declare-fun x0 () Int)
(declare-fun x1 () Int)
(declare-fun x10 () Int)
(declare-fun x11 () Int)
(declare-fun x12 () Int)
(declare-fun x13 () Int)
(declare-fun x14 () Int)
(declare-fun x15 () Int)
(declare-fun x16 () Int)
(declare-fun x17 () Int)
(declare-fun x18 () Int)
(declare-fun x19 () Int)
(declare-fun x2 () Int)
(declare-fun x20 () Int)
(declare-fun x21 () Int)
(declare-fun x22 () Int)
(declare-fun x23 () Int)
(declare-fun x24 () Int)
(declare-fun x25 () Int)
(declare-fun x26 () Int)
(declare-fun x27 () Int)
(declare-fun x28 () Int)
(declare-fun x29 () Int)
(declare-fun x3 () Int)
(declare-fun x30 () Int)
(declare-fun x31 () Int)
(declare-fun x32 () Int)
(declare-fun x33 () Int)
(declare-fun x34 () Int)
(declare-fun x4 () Int)
(declare-fun x5 () Int)
(declare-fun x6 () Int)
(declare-fun x7 () Int)
(declare-fun x8 () Int)
(declare-fun x9 () Int)
(assert (let ((?v_0 (* 0 x12)) (?v_4 (* 0 x17)) (?v_5 (* 0 x19)) (?v_7 (* 1 x14)) (?v_78 (* 1 x20)) (?v_45 (* 0 x21)) (?v_110 (* 2 x22)) (?v_19 (* 1 x23)) (?v_35 (* 1 x3)) (?v_6 (* 0 x30)) (?v_12 (* 0 x32)) (?v_58 (* 1 x34)) (?v_44 (* 1 x6)) (?v_28 (* 1 x8)) (?v_61 (* 0 x11)) (?v_10 (* 1 x1)) (?v_16 (* 1 x10)) (?v_32 (* 1 x15)) (?v_2 (* 0 x16)) (?v_17 (* 1 x19)) (?v_8 (* 0 x24)) (?v_40 (* 0 x29)) (?v_34 (* 0 x31)) (?v_93 (* 1 x4)) (?v_51 (* 1 x5)) (?v_21 (* 0 x7)) (?v_23 (* 0 x20)) (?v_25 (* 0 x26)) (?v_49 (* 0 x28)) (?v_42 (* 1 x2)) (?v_85 (* 1 x21)) (?v_64 (* 1 x25)) (?v_68 (* 1 x13)) (?v_56 (* 2 x12)) (?v_63 (* 0 x18)) (?v_101 (* 3 x17)) (?v_70 (* 0 x3)) (?v_18 (* 1 x22)) (?v_46 (* 0 x25)) (?v_79 (* 1 x33)) (?v_53 (* 0 x1)) (?v_55 (* 0 x15)) (?v_80 (* 1 x0)) (?v_71 (* 1 x17)) (?v_47 (* 0 x27)) (?v_77 (* 0 x8)) (?v_48 (* 1 x26)) (?v_50 (* 1 x30)) (?v_27 (* 0 x4)) (?v_29 (* 0 x0)) (?v_31 (* 0 x14)) (?v_39 (* 1 x16)) (?v_33 (* 0 x2)) (?v_100 (* 0 x23)) (?v_36 (* 0 x5)) (?v_98 (* 1 x7)) (?v_52 (* 0 x9)) (?v_37 (* 0 x13)) (?v_38 (* 1 x12)) (?v_57 (* 1 x32)) (?v_41 (* 0 x34)) (?v_59 (* 0 x6)) (?v_54 (* 0 x10)) (?v_108 (* 1 x9)) (?v_86 (* 2 x8)) (?v_65 (* 1 x27)) (?v_88 (* 2 x16)) (?v_69 (* 0 x22)) (?v_117 (* 1 x24)) (?v_73 (* 0 x33)) (?v_112 (* 2 x27)) (?v_96 (* 1 x28)) (?v_83 (* 1 x29))) (let ((?v_111 (+ ?v_86 (* 2 x9))) (?v_97 (* 1 x18)) (?v_116 (* 1 x31)) (?v_107 (* 2 x25)) (?v_109 (* 1 x11)) (?v_118 (+ ?v_98 ?v_108)) (?v_113 (* 2 x1)) (?v_60 (* (- 1) x0)) (?v_14 (* (- 1) x11)) (?v_15 (* (- 1) x13)) (?v_1 (* (- 1) x28)) (?v_81 (* (- 1) x14)) (?v_11 (* (- 1) x20)) (?v_3 (* (- 1) x23)) (?v_20 (* (- 1) x25)) (?v_92 (* (- 1) x3)) (?v_9 (* (- 2) x6)) (?v_22 (* (- 1) x18)) (?v_26 (* (- 1) x29)) (?v_72 (* (- 1) x9)) (?v_13 (* (- 1) x4)) (?v_105 (* (- 1) x15)) (?v_102 (* (- 1) x2)) (?v_30 (* (- 1) x27)) (?v_94 (* (- 1) x31)) (?v_75 (* (- 1) x5)) (?v_104 (* (- 2) x21)) (?v_24 (* (- 1) x24)) (?v_90 (* (- 2) x17)) (?v_82 (* (- 1) x22)) (?v_99 (* (- 1) x30)) (?v_62 (* (- 1) x26)) (?v_43 (* (- 1) x33)) (?v_95 (* (- 1) x32)) (?v_103 (* (- 1) x8)) (?v_67 (* (- 1) x12)) (?v_87 (* (- 1) x34)) (?v_66 (* (- 1) x6)) (?v_114 (* (- 2) x20)) (?v_84 (* (- 1) x16)) (?v_91 (* (- 1) x21)) (?v_76 (* (- 1) x7)) (?v_74 (* (- 1) x1)) (?v_89 (* (- 1) x10)) (?v_106 (* (- 1) x19)) (?v_115 (* (- 1) x17))) (and (<= (+ ?v_60 (+ ?v_14 (+ ?v_15 (+ ?v_0 (+ ?v_4 (+ ?v_5 (+ ?v_7 (+ (* 2 x18) (+ (* (- 2) x2) (+ ?v_78 (+ ?v_45 (+ ?v_110 (+ ?v_19 (+ ?v_1 (+ ?v_35 (+ ?v_6 (+ ?v_12 (+ ?v_58 (+ ?v_44 ?v_28))))))))))))))))))) 1) (<= (+ ?v_61 (+ ?v_10 (+ ?v_16 (+ ?v_0 (+ ?v_81 (+ ?v_32 (+ ?v_11 (+ ?v_3 (+ ?v_20 (+ ?v_1 (+ ?v_92 (+ ?v_2 (+ ?v_17 (+ ?v_8 (+ ?v_40 (+ ?v_34 (+ ?v_93 (+ ?v_51 (+ ?v_9 (+ ?v_21 (* 3 x33))))))))))))))))))))) 0) (<= (+ ?v_0 (+ ?v_2 (+ ?v_22 (+ ?v_3 (+ ?v_26 (+ ?v_72 (+ ?v_4 (+ ?v_5 (+ ?v_23 (+ ?v_25 (+ ?v_49 (+ ?v_6 (+ ?v_7 (+ ?v_42 (+ ?v_85 (+ ?v_8 (+ ?v_64 (+ (* (- 3) x33) (+ ?v_13 ?v_9))))))))))))))))))) 1) (<= (+ ?v_105 (+ ?v_10 (+ ?v_68 (+ ?v_56 (+ ?v_63 (+ ?v_7 (+ ?v_101 (+ ?v_102 (+ ?v_11 (+ ?v_30 (+ ?v_94 (+ ?v_70 (+ ?v_12 (+ ?v_18 (+ ?v_46 (+ ?v_13 (+ ?v_75 ?v_79))))))))))))))))) 0) (<= (+ ?v_14 (+ ?v_53 (+ ?v_15 (+ ?v_55 (+ ?v_80 (+ ?v_16 (+ ?v_11 (+ ?v_104 (+ ?v_0 (+ ?v_71 (+ ?v_17 (+ ?v_18 (+ ?v_19 (+ ?v_24 (+ ?v_20 (+ ?v_47 (+ ?v_12 (+ ?v_21 (+ ?v_77 (+ ?v_48 (+ ?v_50 ?v_27))))))))))))))))))))) 0) (<= (+ ?v_29 (+ ?v_16 (+ ?v_90 (+ ?v_22 (+ ?v_82 (+ ?v_31 (+ ?v_39 (+ ?v_33 (+ ?v_23 (+ ?v_100 (+ ?v_24 (+ ?v_25 (+ ?v_26 (+ ?v_99 (+ ?v_12 (+ (* (- 2) x33) (+ ?v_27 (+ ?v_36 (+ ?v_98 (+ ?v_28 ?v_52)))))))))))))))))))) (- 1)) (<= (+ ?v_29 (+ ?v_10 (+ ?v_37 (+ ?v_62 (+ ?v_30 (+ ?v_38 (+ ?v_31 (+ ?v_32 (+ ?v_4 (+ ?v_5 (+ ?v_33 (+ ?v_23 (+ ?v_8 (+ ?v_34 (+ ?v_35 (+ ?v_57 (+ ?v_43 (+ ?v_41 (+ ?v_36 (+ ?v_59 (+ ?v_21 ?v_28))))))))))))))))))))) (- 1)) (<= (+ ?v_95 (+ ?v_103 (+ ?v_54 (+ ?v_37 (+ ?v_38 (+ ?v_39 (+ ?v_4 (+ ?v_23 (+ ?v_25 (+ ?v_17 (+ ?v_40 (+ ?v_6 (+ ?v_34 (+ ?v_41 (+ ?v_42 (+ ?v_8 (+ ?v_35 (+ ?v_43 (+ ?v_13 (+ ?v_44 ?v_108)))))))))))))))))))) 0) (<= (+ ?v_67 (+ ?v_87 (+ ?v_37 (+ ?v_3 (+ ?v_4 (+ ?v_23 (+ ?v_45 (+ ?v_46 (+ ?v_47 (+ ?v_48 (+ ?v_49 (+ ?v_40 (+ ?v_12 (+ ?v_50 (+ ?v_43 (+ ?v_27 (+ ?v_51 (+ ?v_66 (+ ?v_21 (+ ?v_86 ?v_52)))))))))))))))))))) 0) (<= (+ ?v_53 (+ ?v_54 (+ ?v_37 (+ ?v_55 (+ ?v_114 (+ ?v_56 (+ ?v_84 (+ ?v_22 (+ ?v_7 (+ ?v_17 (+ ?v_33 (+ ?v_18 (+ ?v_19 (+ (* (- 2) x24) (+ ?v_25 (+ ?v_65 (+ ?v_49 (+ ?v_34 (+ ?v_57 (+ ?v_43 (+ ?v_58 ?v_59))))))))))))))))))))) 0) (<= (+ ?v_60 (+ ?v_53 (+ ?v_61 (+ ?v_37 (+ ?v_91 (+ ?v_62 (+ ?v_88 (+ ?v_26 (+ ?v_76 (+ ?v_4 (+ ?v_63 (+ ?v_17 (+ ?v_13 (+ ?v_33 (+ ?v_69 (+ ?v_49 (+ ?v_41 (+ ?v_36 (+ ?v_117 (+ ?v_64 (+ ?v_65 (+ ?v_35 (+ ?v_66 ?v_73))))))))))))))))))))))) 0) (<= (+ ?v_74 (+ (* (- 2) x10) (+ ?v_67 (+ ?v_68 (+ (* (- 2) x16) (+ (* (- 2) x19) (+ (* (- 2) x5) (+ ?v_23 (+ ?v_69 (+ ?v_70 (+ ?v_6 (+ ?v_34 (+ ?v_41 (+ ?v_21 (+ ?v_71 (+ ?v_33 (+ ?v_19 (+ ?v_64 (+ ?v_48 (+ ?v_112 (+ ?v_96 (+ ?v_66 (+ ?v_72 (+ ?v_73 ?v_28)))))))))))))))))))))))) 1) (<= (+ ?v_74 (+ ?v_29 (+ ?v_61 (+ ?v_55 (+ ?v_75 (+ ?v_76 (+ ?v_0 (+ ?v_4 (+ ?v_69 (+ ?v_25 (+ ?v_6 (+ ?v_34 (+ ?v_12 (+ ?v_13 (+ ?v_77 (+ ?v_7 (+ (* 2 x19) (+ ?v_42 (+ ?v_78 (+ ?v_83 (+ ?v_35 (+ ?v_58 (+ ?v_66 (+ ?v_52 ?v_79)))))))))))))))))))))))) 0) (<= (+ ?v_53 (+ ?v_80 (+ ?v_89 (+ ?v_81 (+ ?v_55 (+ ?v_22 (+ ?v_82 (+ ?v_5 (+ ?v_1 (+ ?v_76 (+ ?v_71 (+ ?v_33 (+ ?v_25 (+ ?v_34 (+ ?v_77 (+ ?v_78 (+ ?v_6 (+ ?v_83 (+ ?v_35 (+ ?v_51 ?v_59)))))))))))))))))))) 1) (<= (+ ?v_10 (+ ?v_54 (+ ?v_37 (+ ?v_84 (+ ?v_22 (+ ?v_82 (+ ?v_13 (+ ?v_7 (+ ?v_33 (+ ?v_23 (+ ?v_46 (+ ?v_47 (+ ?v_70 (+ ?v_34 (+ ?v_12 (+ ?v_36 (+ ?v_85 (+ ?v_19 (+ ?v_49 (+ ?v_83 (+ ?v_79 ?v_111))))))))))))))))))))) 0) (<= (+ ?v_29 (+ ?v_54 (+ ?v_61 (+ (* (- 2) x12) (+ ?v_55 (+ ?v_3 (+ ?v_87 (+ ?v_25 (+ ?v_47 (+ ?v_72 (+ ?v_88 (+ ?v_71 (+ ?v_97 (+ ?v_33 (+ ?v_64 (+ ?v_83 (+ ?v_116 (+ ?v_57 (+ ?v_27 (+ ?v_66 ?v_28)))))))))))))))))))) 1) (<= (+ ?v_74 (+ ?v_89 (+ ?v_37 (+ ?v_90 (+ ?v_81 (+ ?v_55 (+ ?v_91 (+ ?v_82 (+ ?v_92 (+ ?v_5 (+ ?v_23 (+ ?v_8 (+ ?v_25 (+ ?v_65 (+ ?v_40 (+ ?v_57 (+ (* 2 x30) (+ ?v_73 (+ ?v_21 (+ ?v_58 (+ ?v_52 (+ ?v_93 (+ ?v_51 ?v_28))))))))))))))))))))))) 1) (<= (+ ?v_14 (+ ?v_29 (+ ?v_16 (+ ?v_106 (+ ?v_92 (+ ?v_94 (+ ?v_95 (+ ?v_0 (+ ?v_4 (+ ?v_33 (+ ?v_18 (+ ?v_8 (+ ?v_46 (+ ?v_47 (+ ?v_36 (+ ?v_48 (+ ?v_6 (+ ?v_96 (+ ?v_40 (+ ?v_79 (+ ?v_93 ?v_28))))))))))))))))))))) 1) (<= (+ ?v_74 (+ ?v_14 (+ ?v_54 (+ ?v_38 (+ ?v_84 (+ ?v_31 (+ ?v_55 (+ ?v_5 (+ ?v_46 (+ ?v_25 (+ ?v_40 (+ ?v_12 (+ ?v_36 (+ ?v_71 (+ ?v_97 (+ ?v_78 (+ ?v_19 (+ ?v_35 (+ (* 2 x28) (+ ?v_73 (+ ?v_58 (+ ?v_27 (+ ?v_59 ?v_98))))))))))))))))))))))) (- 1)) (<= (+ ?v_80 (+ ?v_10 (+ ?v_54 (+ ?v_99 (+ ?v_0 (+ ?v_37 (+ ?v_31 (+ ?v_55 (+ ?v_63 (+ ?v_33 (+ ?v_23 (+ ?v_25 (+ ?v_34 (+ ?v_65 (+ ?v_12 (+ ?v_35 (+ ?v_107 (+ ?v_73 (+ ?v_27 (+ ?v_51 (+ ?v_28 (+ ?v_52 ?v_44)))))))))))))))))))))) 0) (<= (+ (* (- 2) x32) (+ ?v_80 (+ ?v_54 (+ ?v_61 (+ (* (- 2) x26) (+ ?v_67 (+ ?v_37 (+ ?v_55 (+ ?v_82 (+ ?v_34 (+ ?v_41 (+ ?v_75 (+ ?v_100 (+ ?v_21 (+ ?v_39 (+ ?v_4 (+ ?v_78 (+ ?v_85 (+ ?v_28 (+ (* 2 x2) (+ ?v_8 (+ ?v_73 ?v_59)))))))))))))))))))))) 0) (<= (+ ?v_15 (+ ?v_29 (+ ?v_55 (+ ?v_109 (+ ?v_82 (+ ?v_94 (+ ?v_0 (+ ?v_100 (+ ?v_25 (+ ?v_49 (+ ?v_39 (+ ?v_97 (+ ?v_64 (+ ?v_65 (+ ?v_101 (+ ?v_102 (+ ?v_13 (+ ?v_76 (+ ?v_8 (+ ?v_73 (+ ?v_36 (+ ?v_28 (* 2 x6))))))))))))))))))))))) (- 1)) (<= (+ ?v_14 (+ ?v_94 (+ ?v_10 (+ ?v_32 (+ ?v_82 (+ ?v_103 (+ ?v_16 (+ ?v_4 (+ ?v_17 (+ ?v_33 (+ ?v_45 (+ ?v_100 (+ ?v_8 (+ ?v_65 (+ ?v_49 (+ ?v_6 (+ ?v_57 (+ ?v_73 (+ ?v_21 (+ ?v_58 ?v_44)))))))))))))))))))) 0) (<= (+ ?v_14 (+ ?v_29 (+ ?v_104 (+ ?v_67 (+ ?v_68 (+ ?v_11 (+ ?v_25 (+ ?v_47 (+ ?v_12 (+ ?v_36 (+ ?v_52 (+ ?v_39 (+ ?v_4 (+ ?v_97 (+ ?v_17 (+ ?v_64 (+ ?v_83 (+ ?v_13 (+ ?v_73 (+ ?v_59 ?v_86)))))))))))))))))))) (- 1)) (<= (+ ?v_105 (+ ?v_10 (+ (* 2 x11) (+ ?v_68 (+ ?v_106 (+ ?v_62 (+ ?v_87 (+ ?v_2 (+ ?v_23 (+ ?v_49 (+ ?v_6 (+ ?v_34 (+ ?v_77 (+ ?v_97 (+ ?v_65 (+ ?v_107 (+ ?v_83 (+ ?v_57 (+ ?v_27 (+ ?v_42 ?v_118)))))))))))))))))))) 0) (<= (+ ?v_113 (+ ?v_89 (+ ?v_11 (+ (* (- 2) x9) (+ ?v_91 (+ ?v_3 (+ ?v_20 (+ ?v_99 (+ ?v_95 (+ ?v_103 (+ ?v_2 (+ ?v_5 (+ ?v_7 (+ ?v_71 (+ ?v_97 (+ ?v_33 (+ ?v_24 (+ ?v_47 (+ ?v_58 (+ ?v_59 (+ ?v_21 ?v_79))))))))))))))))))))) 0) (<= (+ ?v_29 (+ ?v_53 (+ ?v_16 (+ ?v_109 (+ ?v_68 (+ ?v_84 (+ ?v_115 (+ ?v_106 (+ ?v_92 (+ ?v_87 (+ ?v_76 (+ ?v_23 (+ ?v_45 (+ ?v_25 (+ ?v_26 (+ ?v_72 (+ ?v_7 (+ ?v_42 (+ ?v_110 (+ ?v_8 (+ ?v_64 (+ ?v_93 (+ ?v_59 ?v_79))))))))))))))))))))))) 1) (<= (+ (* (- 2) x34) (+ ?v_60 (+ ?v_10 (+ ?v_89 (+ ?v_67 (+ ?v_37 (+ ?v_81 (+ ?v_22 (+ ?v_106 (+ ?v_82 (+ ?v_75 (+ ?v_25 (+ ?v_71 (+ ?v_102 (+ ?v_19 (+ ?v_64 (+ ?v_35 (+ (* 2 x24) (+ ?v_59 ?v_111))))))))))))))))))) (- 1)) (<= (+ ?v_54 (+ ?v_109 (+ ?v_0 (+ ?v_84 (+ ?v_11 (+ ?v_3 (+ ?v_25 (+ ?v_49 (+ (* (- 2) x29) (+ ?v_6 (+ ?v_36 (+ ?v_77 (+ ?v_7 (+ ?v_32 (+ ?v_17 (+ ?v_64 (+ ?v_112 (+ ?v_35 (+ ?v_79 ?v_108))))))))))))))))))) 0) (<= (+ (* (- 2) x15) (+ ?v_80 (+ ?v_10 (+ ?v_54 (+ ?v_0 (+ ?v_37 (+ ?v_2 (+ ?v_69 (+ ?v_46 (+ ?v_47 (+ ?v_85 (+ ?v_19 (+ ?v_48 (+ ?v_40 (+ ?v_34 (+ ?v_7 (+ ?v_50 (+ ?v_57 (+ ?v_43 (+ ?v_58 (+ ?v_93 ?v_51))))))))))))))))))))) 0) (<= (+ ?v_29 (+ ?v_113 (+ ?v_89 (+ ?v_61 (+ ?v_37 (+ ?v_114 (+ ?v_30 (+ ?v_5 (+ ?v_69 (+ ?v_6 (+ ?v_77 (+ ?v_38 (+ ?v_39 (+ ?v_71 (+ ?v_97 (+ ?v_102 (+ ?v_96 (+ ?v_83 (+ ?v_58 ?v_108))))))))))))))))))) 0) (<= (+ ?v_10 (+ ?v_37 (+ ?v_55 (+ ?v_2 (+ ?v_115 (+ ?v_95 (+ ?v_63 (+ ?v_23 (+ ?v_100 (+ ?v_17 (+ ?v_18 (+ ?v_64 (+ ?v_49 (+ ?v_35 (+ ?v_116 (+ ?v_27 (+ ?v_77 (+ ?v_7 (+ ?v_42 (+ ?v_83 (+ ?v_51 (+ ?v_59 ?v_108)))))))))))))))))))))) 0) (<= (+ ?v_15 (+ ?v_29 (+ ?v_61 (+ ?v_55 (+ ?v_10 (+ ?v_16 (+ ?v_81 (+ ?v_11 (+ ?v_92 (+ ?v_99 (+ ?v_95 (+ ?v_4 (+ ?v_5 (+ ?v_33 (+ ?v_18 (+ (* 2 x23) (+ ?v_40 (+ ?v_34 (+ ?v_41 (+ ?v_27 (+ ?v_52 (+ ?v_117 ?v_73)))))))))))))))))))))) 1) (<= (+ (* (- 3) x1) (+ ?v_105 (+ ?v_37 (+ (* 2 x10) (+ ?v_106 (+ ?v_11 (+ ?v_92 (+ ?v_103 (+ ?v_0 (+ ?v_69 (+ ?v_39 (+ ?v_19 (+ ?v_65 (+ ?v_96 (+ ?v_40 (+ ?v_13 (+ ?v_36 (+ (* 2 x14) (+ ?v_33 (+ ?v_117 ?v_59)))))))))))))))))))) 0) (<= (+ (* (- 2) x13) (+ ?v_81 (+ ?v_105 (+ ?v_20 (+ ?v_62 (+ ?v_75 (+ ?v_2 (+ ?v_63 (+ ?v_5 (+ ?v_33 (+ ?v_23 (+ ?v_45 (+ ?v_69 (+ ?v_8 (+ ?v_47 (+ ?v_70 (+ ?v_116 (+ ?v_41 (+ ?v_27 (+ ?v_79 (+ ?v_44 ?v_118))))))))))))))))))))) 0)))))
(check-sat)
(exit)
